17	4
16	22	21	16	
0	0	0	0	0	3	2	3	4	
6	5	0	0	8	3	13	16	17	
6	0	0	0	9	2	11	17	
10	0	8	4	0	3	5	14	17	
1	10	7	0	0	2	6	10	
175	4	0	0	7	3	7	8	9	
250	0	0	6	6	2	15	17	
125	3	7	10	0	2	17	17	
150	0	10	8	0	2	15	17	
100	7	0	3	0	3	12	13	16	
200	0	1	0	5	3	17	17	17	
200	9	0	0	9	1	17	
10	6	10	0	0	2	17	17	
3	6	0	4	6	1	17	
6	0	10	10	7	3	16	17	17	
3	3	9	0	0	1	17	
0	0	0	0	0	0	
